0 4972
2 4920
3 4908
4 4905
5 4880
6 4872
7 4857
8 4810
10 4753
11 4709
14 4676
15 4646
16 4623
22 4611
28 4552
30 4542
32 4521
44 4520
45 4516
79 4511
82 4510
84 4490
99 4482
122 4450
141 4445
155 4441
161 4438
166 4426
169 4421
170 4401
174 4390
184 4385
193 4372
216 4359
220 4349
228 4344
249 4339
250 4321
271 4311
418 4303
463 4290
523 4287
539 4261
550 4222
552 4197
831 4189
837 4186
851 4175
859 4170
882 4166
1338 4161
1456 4157
1496 4147
1623 4146
1691 4144
1697 4143
1727 4139
1784 4134
1796 4126
1811 4110
1864 4081
2054 4078
2075 4076
2875 4074
2944 4072
3167 4068
4458 4067
4767 4065
4877 4058
5005 4057
5753 4055
7339 4054
